language ESSENCE' 1.0

letting jobs = 102
letting horizon = 784
letting resourcesRenew = 2
letting resourcesNonrenew = 2
letting resourceLimits = [30, 28, 478, 494]
letting successors = [[2, 3, 4, 5, 6, 7, 9, 11, 12, 13, 14, 16, 19, 20, 22], [57, 49, 47, 42, 39, 38, 37, 35, 34, 33, 32, 28, 25, 24, 21], [51, 49, 45, 41, 32, 31, 28, 26, 23, 10], [33, 32, 28, 27, 26, 21, 8], [49, 43, 29, 28, 18, 17, 15], [57, 54, 49, 44, 43, 41, 38, 36, 35, 32, 29, 28, 26], [58, 52, 47, 46, 45, 43, 42, 39, 37, 36, 30, 29, 27], [63, 58, 52, 51, 47, 46, 45, 43, 42, 40, 39, 37, 36, 30], [57, 54, 52, 51, 50, 49, 47, 44, 42, 41, 36, 35, 33, 31], [57, 54, 47, 44, 42, 38, 35, 25, 21], [57, 56, 54, 52, 50, 47, 46, 45, 44, 43, 41, 40, 27], [65, 63, 61, 58, 57, 54, 51, 50, 49, 46, 45, 44, 42, 40, 36, 35], [61, 57, 55, 54, 52, 50, 49, 47, 44, 40, 38, 32, 29], [57, 53, 52, 49, 47, 46, 45, 42, 39, 38, 25], [63, 57, 54, 53, 52, 51, 50, 47, 42, 41, 32], [65, 61, 60, 58, 56, 50, 49, 47, 46, 45, 44, 40, 29], [63, 61, 57, 56, 52, 50, 47, 46, 40, 38, 35], [63, 61, 57, 54, 53, 52, 45, 40, 37, 32], [65, 52, 51, 49, 45, 44, 33, 25], [64, 59, 58, 55, 54, 51, 47, 37, 28], [65, 60, 58, 55, 52, 46, 43, 40, 29], [71, 63, 61, 60, 55, 53, 52, 47, 32], [75, 57, 52, 44, 25], [74, 71, 69, 67, 65, 63, 62, 58, 54, 52, 51, 46, 45], [81, 64, 62, 61, 60, 58, 56, 55, 50, 40], [75, 67, 64, 63, 58, 56, 53, 50, 47, 42], [81, 75, 74, 73, 72, 67, 66, 65, 64, 63, 62, 60, 59, 55, 51, 49], [81, 69, 65, 62, 61, 56, 53, 52, 40], [81, 75, 71, 69, 67, 66, 64, 63, 62, 59, 53, 48], [81, 75, 67, 62, 60, 59, 57, 56, 54, 44], [71, 63, 61, 55, 48, 38], [80, 69, 67, 65, 64, 58, 56, 48, 46], [81, 79, 71, 69, 67, 66, 62, 61, 58, 48], [78, 75, 74, 71, 68, 67, 62, 59, 44], [101, 81, 78, 77, 75, 74, 73, 71, 69, 68, 67, 64, 60, 59, 55, 53], [101, 81, 77, 73, 71, 70, 69, 68, 67, 66, 62, 59, 56], [98, 97, 92, 81, 80, 79, 75, 69, 67, 60, 48], [101, 97, 95, 94, 92, 81, 80, 79, 78, 72, 69, 68, 66, 65, 60, 58], [101, 92, 91, 89, 77, 73, 69, 68, 65, 64, 56, 55], [92, 91, 80, 71, 67, 66, 48], [101, 97, 95, 94, 92, 78, 74, 72, 69, 68, 64, 61, 60, 58], [101, 100, 99, 97, 95, 94, 93, 92, 88, 85, 81, 80, 79, 78, 77, 72, 69, 66, 60], [101, 97, 96, 95, 80, 79, 78, 77, 75, 74, 73, 68, 64, 61], [101, 98, 97, 77, 76, 73, 70, 69, 64, 53], [101, 98, 92, 91, 81, 80, 77, 73, 68, 64, 55], [96, 92, 89, 88, 81, 78, 76, 75, 73, 72, 68, 66, 59], [97, 91, 89, 88, 77, 76, 73, 72, 69, 68, 62], [101, 99, 96, 89, 88, 87, 78, 77, 74, 73, 72, 70, 68], [101, 99, 98, 97, 94, 92, 91, 89, 88, 86, 77, 70, 69, 68], [100, 98, 94, 88, 86, 79, 78, 76, 71, 69, 59], [100, 99, 98, 96, 91, 89, 88, 86, 84, 78, 77, 70], [98, 97, 96, 88, 87, 86, 85, 82, 79, 78, 68], [100, 99, 94, 93, 92, 91, 85, 84, 82, 79, 72], [97, 94, 93, 91, 88, 86, 85, 84, 83, 77, 76], [97, 96, 94, 90, 88, 86, 84, 76, 70], [99, 98, 90, 88, 87, 78, 74, 72], [99, 95, 91, 88, 85, 82, 76, 73], [99, 98, 93, 91, 89, 88, 87, 85, 77], [97, 95, 91, 90, 87, 85, 83, 82], [96, 91, 89, 84, 83, 82, 76], [98, 91, 89, 86, 85, 83, 82], [95, 92, 85, 83, 82, 80], [93, 85, 84, 83, 82, 79], [99, 93, 88, 84, 83, 82], [99, 98, 88, 86, 84, 82], [98, 90, 87, 86, 83], [94, 89, 86, 76], [100, 90, 83], [96, 90, 84], [95, 85, 82], [97, 90, 84], [86, 83], [94, 84], [93, 82], [94, 87], [87], [82], [83], [89], [84], [83], [102], [102], [102], [102], [102], [102], [102], [102], [102], [102], [102], [102], [102], [102], [102], [102], [102], [102], [102], [102], []]
letting durations = [[0], [2, 3, 7], [2, 5, 9], [1, 2, 9], [1, 4, 7], [2, 4, 6], [3, 6, 8], [2, 5, 10], [4, 5, 6], [5, 5, 9], [6, 6, 7], [2, 8, 10], [2, 6, 7], [8, 10, 10], [1, 7, 10], [4, 5, 7], [1, 6, 9], [4, 5, 8], [6, 7, 8], [4, 5, 10], [4, 8, 9], [3, 6, 7], [3, 3, 4], [1, 3, 3], [3, 4, 6], [7, 9, 10], [2, 3, 6], [2, 4, 9], [1, 9, 10], [2, 3, 10], [1, 9, 10], [7, 8, 8], [1, 4, 5], [1, 2, 3], [7, 8, 9], [1, 3, 6], [8, 9, 10], [4, 7, 10], [3, 4, 4], [1, 1, 2], [2, 4, 8], [3, 9, 10], [1, 4, 9], [3, 5, 9], [2, 8, 9], [2, 7, 9], [3, 8, 9], [3, 7, 10], [2, 3, 5], [4, 9, 10], [2, 6, 8], [1, 4, 9], [1, 6, 7], [1, 1, 5], [1, 5, 6], [1, 4, 5], [4, 6, 10], [5, 8, 10], [3, 7, 8], [5, 6, 9], [8, 9, 10], [3, 5, 8], [5, 8, 10], [6, 7, 8], [6, 6, 9], [4, 7, 10], [2, 2, 6], [4, 5, 8], [1, 5, 6], [1, 5, 10], [1, 2, 5], [3, 4, 8], [3, 4, 5], [3, 4, 6], [2, 6, 9], [4, 7, 10], [2, 5, 5], [2, 6, 7], [4, 5, 8], [2, 7, 7], [3, 5, 10], [1, 3, 5], [3, 5, 7], [6, 8, 9], [2, 6, 7], [2, 5, 6], [3, 7, 9], [2, 5, 9], [1, 3, 3], [2, 2, 9], [1, 4, 8], [2, 9, 9], [3, 9, 10], [6, 7, 10], [1, 4, 10], [1, 2, 7], [4, 5, 9], [6, 7, 8], [1, 3, 4], [2, 4, 10], [1, 2, 7], [0]]
letting resourceUsage = [[[0, 0, 0, 0]], [[5, 0, 4, 8], [5, 0, 4, 6], [5, 0, 4, 5]], [[0, 3, 10, 7], [0, 3, 8, 7], [0, 3, 7, 6]], [[2, 0, 9, 8], [0, 1, 8, 6], [0, 1, 8, 4]], [[2, 0, 8, 8], [0, 2, 5, 8], [0, 1, 4, 7]], [[3, 0, 3, 9], [0, 4, 3, 9], [3, 0, 1, 9]], [[3, 0, 6, 2], [2, 0, 5, 2], [0, 2, 1, 2]], [[5, 0, 5, 3], [0, 4, 3, 3], [2, 0, 2, 1]], [[0, 4, 4, 9], [3, 0, 4, 5], [0, 2, 4, 3]], [[0, 2, 7, 6], [3, 0, 6, 6], [0, 2, 5, 5]], [[4, 0, 10, 4], [0, 4, 10, 4], [0, 3, 10, 1]], [[0, 5, 9, 6], [0, 4, 4, 5], [0, 4, 2, 5]], [[0, 4, 8, 8], [2, 0, 7, 7], [1, 0, 7, 6]], [[0, 4, 4, 7], [0, 2, 2, 7], [1, 0, 2, 7]], [[0, 2, 7, 8], [1, 0, 6, 7], [0, 2, 4, 6]], [[0, 4, 5, 9], [3, 0, 4, 9], [3, 0, 2, 7]], [[0, 5, 6, 9], [0, 3, 6, 9], [3, 0, 5, 7]], [[5, 0, 6, 5], [4, 0, 5, 4], [4, 0, 4, 1]], [[0, 3, 2, 8], [0, 3, 2, 3], [0, 3, 1, 1]], [[0, 5, 9, 8], [3, 0, 8, 7], [0, 5, 7, 4]], [[5, 0, 9, 9], [0, 4, 9, 4], [0, 4, 9, 2]], [[5, 0, 3, 7], [4, 0, 2, 6], [0, 2, 2, 3]], [[4, 0, 9, 6], [0, 2, 8, 5], [0, 2, 6, 4]], [[0, 3, 8, 8], [0, 3, 8, 7], [4, 0, 8, 7]], [[5, 0, 8, 5], [5, 0, 7, 4], [5, 0, 7, 3]], [[2, 0, 6, 8], [2, 0, 6, 6], [2, 0, 6, 4]], [[4, 0, 4, 8], [0, 2, 4, 8], [2, 0, 3, 6]], [[3, 0, 6, 8], [2, 0, 5, 8], [0, 1, 5, 7]], [[5, 0, 8, 8], [0, 5, 8, 9], [0, 5, 8, 8]], [[0, 5, 10, 9], [0, 3, 8, 9], [2, 0, 7, 8]], [[0, 5, 7, 9], [3, 0, 6, 8], [0, 3, 6, 8]], [[4, 0, 5, 8], [2, 0, 5, 7], [0, 2, 5, 6]], [[0, 3, 5, 10], [0, 3, 5, 6], [0, 3, 2, 3]], [[4, 0, 5, 4], [4, 0, 4, 2], [0, 1, 3, 2]], [[4, 0, 8, 9], [0, 3, 8, 7], [4, 0, 8, 6]], [[3, 0, 9, 4], [0, 2, 6, 4], [3, 0, 5, 3]], [[3, 0, 7, 7], [1, 0, 5, 7], [1, 0, 4, 7]], [[0, 3, 8, 3], [3, 0, 6, 2], [2, 0, 6, 2]], [[2, 0, 6, 5], [0, 2, 4, 4], [2, 0, 2, 3]], [[0, 5, 4, 10], [4, 0, 4, 9], [4, 0, 4, 8]], [[0, 4, 10, 7], [0, 4, 6, 5], [3, 0, 6, 4]], [[0, 5, 9, 8], [0, 5, 4, 7], [0, 5, 2, 5]], [[0, 5, 3, 8], [2, 0, 3, 6], [0, 2, 2, 2]], [[0, 4, 8, 6], [0, 2, 5, 4], [0, 2, 2, 4]], [[2, 0, 3, 9], [1, 0, 2, 6], [0, 1, 1, 2]], [[0, 1, 6, 4], [0, 1, 5, 4], [0, 1, 3, 3]], [[0, 3, 6, 10], [4, 0, 4, 6], [0, 3, 2, 2]], [[3, 0, 9, 4], [3, 0, 8, 2], [2, 0, 8, 2]], [[0, 4, 9, 6], [0, 4, 9, 3], [0, 2, 9, 1]], [[0, 3, 8, 8], [1, 0, 7, 7], [1, 0, 7, 4]], [[5, 0, 5, 4], [0, 2, 5, 4], [0, 2, 3, 4]], [[0, 5, 6, 5], [4, 0, 5, 5], [0, 5, 4, 4]], [[5, 0, 6, 8], [3, 0, 3, 6], [3, 0, 1, 6]], [[1, 0, 3, 4], [0, 2, 3, 4], [0, 2, 3, 2]], [[0, 5, 8, 8], [0, 3, 7, 6], [3, 0, 7, 5]], [[1, 0, 3, 8], [1, 0, 1, 8], [0, 1, 1, 8]], [[0, 4, 3, 8], [0, 3, 2, 5], [0, 2, 1, 4]], [[2, 0, 2, 3], [0, 1, 2, 2], [0, 1, 2, 1]], [[4, 0, 6, 9], [0, 4, 6, 6], [3, 0, 6, 2]], [[0, 5, 8, 8], [3, 0, 4, 6], [0, 3, 3, 4]], [[4, 0, 9, 8], [3, 0, 9, 8], [3, 0, 7, 8]], [[1, 0, 5, 8], [1, 0, 5, 5], [0, 2, 5, 3]], [[5, 0, 7, 8], [0, 3, 6, 7], [0, 3, 4, 6]], [[2, 0, 9, 8], [2, 0, 8, 4], [2, 0, 8, 3]], [[2, 0, 6, 7], [0, 1, 5, 7], [1, 0, 4, 5]], [[3, 0, 5, 9], [0, 2, 4, 8], [0, 1, 3, 8]], [[0, 4, 5, 5], [3, 0, 4, 3], [0, 2, 2, 3]], [[2, 0, 8, 4], [0, 1, 8, 3], [0, 1, 8, 2]], [[0, 4, 9, 6], [0, 4, 9, 5], [2, 0, 9, 6]], [[0, 4, 6, 6], [1, 0, 3, 5], [1, 0, 1, 4]], [[4, 0, 8, 2], [3, 0, 8, 2], [1, 0, 8, 2]], [[0, 5, 6, 6], [0, 3, 5, 4], [4, 0, 5, 3]], [[3, 0, 2, 4], [3, 0, 2, 2], [3, 0, 2, 1]], [[2, 0, 5, 3], [2, 0, 5, 2], [0, 2, 4, 1]], [[4, 0, 8, 6], [0, 4, 8, 5], [0, 4, 7, 5]], [[0, 4, 8, 9], [4, 0, 6, 7], [0, 4, 6, 4]], [[0, 3, 9, 10], [0, 2, 7, 4], [2, 0, 3, 4]], [[3, 0, 7, 10], [2, 0, 4, 8], [2, 0, 4, 5]], [[0, 2, 7, 10], [3, 0, 4, 8], [1, 0, 2, 8]], [[0, 4, 8, 4], [0, 4, 7, 3], [2, 0, 5, 3]], [[4, 0, 7, 7], [4, 0, 4, 7], [4, 0, 1, 4]], [[0, 5, 7, 4], [0, 4, 6, 4], [0, 4, 5, 4]], [[0, 5, 8, 6], [3, 0, 5, 6], [2, 0, 4, 1]], [[0, 5, 8, 4], [0, 5, 6, 3], [1, 0, 3, 2]], [[3, 0, 4, 8], [2, 0, 3, 8], [0, 2, 3, 8]], [[5, 0, 5, 5], [0, 4, 5, 4], [0, 3, 5, 4]], [[0, 3, 4, 3], [1, 0, 4, 2], [1, 0, 4, 1]], [[3, 0, 8, 9], [0, 3, 7, 7], [0, 1, 7, 6]], [[3, 0, 5, 10], [0, 4, 4, 10], [3, 0, 1, 10]], [[0, 4, 4, 7], [3, 0, 2, 7], [0, 4, 1, 7]], [[2, 0, 4, 9], [0, 1, 3, 6], [1, 0, 3, 4]], [[0, 4, 6, 10], [5, 0, 4, 5], [0, 3, 4, 4]], [[4, 0, 6, 7], [4, 0, 2, 4], [4, 0, 2, 2]], [[0, 4, 5, 5], [3, 0, 3, 4], [3, 0, 2, 4]], [[1, 0, 6, 8], [1, 0, 5, 8], [0, 1, 4, 7]], [[0, 2, 7, 8], [0, 2, 6, 7], [1, 0, 6, 7]], [[0, 3, 1, 2], [0, 2, 1, 2], [2, 0, 1, 1]], [[3, 0, 5, 6], [0, 2, 4, 4], [0, 2, 1, 1]], [[0, 4, 7, 4], [2, 0, 7, 3], [0, 4, 7, 2]], [[2, 0, 8, 8], [0, 4, 7, 8], [2, 0, 7, 6]], [[0, 4, 1, 10], [0, 4, 1, 7], [3, 0, 1, 1]], [[0, 0, 0, 0]]]
